750
[157,162,165,166,167,168,171,182,184,186,187,189,190,192,193,194,196,198,199,204,207,208,209,213,216,217,220,225,226,227,231,238,240,241,242,247,251,252,253,255,257,261,263,264,271,274,280,285,287,290,291,294,295,299,300,302,308,311,314,315,316,320,323,324,325,326,333,335,337,340,345,348,349,352,353,354,357,358,362,364,365,369,370,375,376,379,381,384,385,392,394,395,397,399,403,405,406,407,409,411,413,416,417,418,419,421,422,425,426,428,431,432,436,437,442,444,445,448,451,453,454,455,457,460,462,466,469,470,473,474,476,477,478,479,480,485,486,487,488,489,493,495,496,502,509,511,515,516,518,520,522,525]
[1,1,1,1,2,1,1,2,2,1,1,1,1,1,1,3,2,1,1,1,3,2,1,2,1,1,1,2,1,2,1,1,1,1,1,1,2,1,1,1,1,1,2,2,1,2,2,1,1,1,3,2,1,1,1,1,1,2,1,1,1,2,1,2,1,1,1,2,1,1,1,1,1,1,1,1,2,1,3,1,1,1,2,1,1,2,1,1,1,1,1,2,2,1,1,1,1,1,1,1,1,2,1,1,2,1,2,1,1,1,1,2,1,1,1,1,1,1,2,1,1,1,1,1,1,2,1,2,1,2,1,1,1,1,1,1,1,2,1,1,1,1,1,1,3,3,1,1,2,2,3,1]
